Route #1: 29 63 40 31 17 69 105 64 94 57
Route #2: 96 82 72 34 11 99 74
Route #3: 21 54 85 67 77 83 2 13
Route #4: 45 100 51 60 87 53 1 104
Route #5: 5 101 97 93 28 103 43 76
Route #6: 14 58 88 91 36 8 48 49
Route #7: 44 15 12 9 84 75 7
Route #8: 52 92 102 24 90 26 62
Route #9: 33 22
Route #10: 66 46 71 79 37 27 19 78
Route #11: 86 18 41 10 16 20 56
Route #12: 59 89 30 42 23 3 32 73 35
Route #13: 39 50 81 6 70 4 98 55
Route #14: 68 95 38 65 80 61 47 25
Cost 26386
